3 
4  45 
5  07 23 43 55 
6  08 23 38 56 
7  11 26 41 56 
8  11 26 41 56 
9  11 26 41 56 
10  11 26 41 56 
11  11 26 41 56 
12  11 26 41 56 
13  11 26 41 56 
14  11 26 41 56 
15  11 26 41 56 
16  11 26 41 56 
17  11 26 41 56 
18  11 27 43 58 
19  13 28 43 58 
20  13 28 43 58 
21  13 28 42 57 
22  12 27 42 
23 
